(declare-fun T_1 () Bool)
(declare-fun T_10 () Bool)
(declare-fun T_11 () Bool)
(declare-fun T_12 () Bool)
(declare-fun T_13 () Bool)
(declare-fun T_14 () Bool)
(declare-fun T_15 () Bool)
(declare-fun T_16 () Bool)
(declare-fun T_17 () Bool)
(declare-fun T_18 () Bool)
(declare-fun T_19 () Bool)
(declare-fun T_1a () Bool)
(declare-fun T_1b () Bool)
(declare-fun T_2 () Bool)
(declare-fun T_3 () Bool)
(declare-fun T_4 () Bool)
(declare-fun T_5 () Bool)
(declare-fun T_6 () Bool)
(declare-fun T_7 () Bool)
(declare-fun T_8 () Bool)
(declare-fun T_9 () Bool)
(declare-fun T_a () Bool)
(declare-fun T_b () Bool)
(declare-fun T_c () Bool)
(declare-fun T_d () Bool)
(declare-fun T_e () Bool)
(declare-fun T_f () Bool)
(declare-fun var_0xINPUT_132436 () String)
(assert (= T_1 (not (= "qXdHDo7IZR" var_0xINPUT_132436))))
(assert (= T_2 (not T_1)))
(assert T_2)
(assert (= T_3 (not (= "" var_0xINPUT_132436))))
(assert T_3)
(assert (= T_4 (= var_0xINPUT_132436 "Example:")))
(assert (= T_5 (not T_4)))
(assert T_5)
(assert (= T_6 (not (= "" var_0xINPUT_132436))))
(assert T_6)
(assert (= T_7 (not (= var_0xINPUT_132436 "A9jaaDKZbG"))))
(assert T_7)
(assert (= T_8 (not (= "A9jaaDKZbG" var_0xINPUT_132436))))
(assert T_8)
(assert (= T_9 (= var_0xINPUT_132436 "")))
(assert (= T_a (not T_9)))
(assert T_a)
(assert (= T_b (not (= "" var_0xINPUT_132436))))
(assert T_b)
(assert (= T_c (not (= var_0xINPUT_132436 ""))))
(assert T_c)
(assert (= T_d (not (= "" var_0xINPUT_132436))))
(assert T_d)
(assert (= T_e (= var_0xINPUT_132436 "")))
(assert (= T_f (not T_e)))
(assert T_f)
(assert (= T_10 (not (= "" var_0xINPUT_132436))))
(assert T_10)
(assert (= T_11 (not (= "" var_0xINPUT_132436))))
(assert T_11)
(assert (= T_12 (not (= var_0xINPUT_132436 ""))))
(assert T_12)
(assert (= T_13 (= var_0xINPUT_132436 "")))
(assert (= T_14 (not T_13)))
(assert T_14)
(assert (= T_15 (not (= "" var_0xINPUT_132436))))
(assert T_15)
(assert (= T_16 (not (= "" var_0xINPUT_132436))))
(assert T_16)
(assert (= T_17 (not (= var_0xINPUT_132436 ""))))
(assert T_17)
(assert (= T_18 (= var_0xINPUT_132436 "")))
(assert (= T_19 (not T_18)))
(assert T_19)
(assert (= T_1a (not (= var_0xINPUT_132436 "qXdHDo7IZR"))))
(assert (= T_1b (not T_1a)))
(assert T_1b)
(check-sat)
